
Gurobi 7.5.2 (linux64) logging started Sat Jul  7 16:01:00 2018

Changed value of parameter LogFile to result/ilp/simNo_7-n_100-m_40-s_4-minVAF_0.05-cov_10000-k_2-fn_0.15-fp_0.0001-na_0.15.ILP.gurobiSolverLog
   Prev: gurobi.log  Default: 
Changed value of parameter TimeLimit to 86400.0
   Prev: 1e+100  Min: 0.0  Max: 1e+100  Default: 1e+100
Optimize a model with 639293 rows, 10765 columns and 1940420 nonzeros
Variable types: 0 continuous, 10765 integer (10765 binary)
Coefficient statistics:
  Matrix range     [4e-04, 4e+00]
  Objective range  [1e+00, 1e+01]
  Bounds range     [1e+00, 1e+00]
  RHS range        [3e-01, 2e+00]
Found heuristic solution: objective -16827.10137
Presolve removed 128547 rows and 1008 columns (presolve time = 5s) ...
Presolve removed 129683 rows and 1008 columns (presolve time = 10s) ...
Presolve removed 130246 rows and 1008 columns (presolve time = 15s) ...
Presolve removed 186546 rows and 1571 columns (presolve time = 21s) ...
Presolve removed 186546 rows and 1571 columns
Presolve time: 21.64s
Presolved: 452747 rows, 9194 columns, 1360705 nonzeros
Variable types: 0 continuous, 9194 integer (9194 binary)
Presolved: 9194 rows, 461941 columns, 1369899 nonzeros

Presolve removed 9194 rows and 461941 columns

Root simplex log...

Iteration    Objective       Primal Inf.    Dual Inf.      Time
       0    2.2756229e+01   0.000000e+00   8.351200e+04     26s
   23651   -2.8103965e+02   0.000000e+00   1.097550e+05     30s
   41297   -3.3924291e+02   0.000000e+00   9.693815e+05     35s
   55128   -3.7532644e+02   0.000000e+00   3.242077e+04     40s
   58037   -3.8006353e+02   0.000000e+00   0.000000e+00     42s
   58037   -3.8006353e+02   0.000000e+00   0.000000e+00     43s

Root relaxation: objective -3.800635e+02, 58037 iterations, 19.55 seconds
Total elapsed time = 104.25s
Total elapsed time = 175.52s
Total elapsed time = 220.30s

    Nodes    |    Current Node    |     Objective Bounds      |     Work
 Expl Unexpl |  Obj  Depth IntInf | Incumbent    BestBd   Gap | It/Node Time

     0     0 -380.06353    0 1521 -16827.101 -380.06353  97.7%     -  227s
H    0     0                    -511.8558702 -380.06353  25.7%     -  230s
H    0     0                    -462.0243087 -380.06353  17.7%     -  232s
     0     0 -387.36928    0 1587 -462.02431 -387.36928  16.2%     -  306s
     0     0 -387.72042    0 1606 -462.02431 -387.72042  16.1%     -  325s
     0     0 -387.73045    0 1602 -462.02431 -387.73045  16.1%     -  331s
     0     0 -387.79903    0 1547 -462.02431 -387.79903  16.1%     -  340s
     0     0 -390.02190    0 1440 -462.02431 -390.02190  15.6%     -  496s
     0     0 -390.37284    0 1406 -462.02431 -390.37284  15.5%     -  572s
     0     0 -390.61987    0 1553 -462.02431 -390.61987  15.5%     -  666s
     0     0 -390.73972    0 1422 -462.02431 -390.73972  15.4%     -  710s
     0     0 -390.73972    0 1422 -462.02431 -390.73972  15.4%     -  714s
     0     0 -391.25819    0 1589 -462.02431 -391.25819  15.3%     - 1360s
H    0     0                    -453.4293081 -391.25819  13.7%     - 1364s
     0     0 -391.28890    0 1597 -453.42931 -391.28890  13.7%     - 1376s
     0     0 -392.09384    0 1509 -453.42931 -392.09384  13.5%     - 1617s
H    0     0                    -451.7103080 -392.09384  13.2%     - 1623s
     0     0 -392.54085    0 1517 -451.71031 -392.54085  13.1%     - 1764s
     0     0 -392.55141    0 1484 -451.71031 -392.55141  13.1%     - 1777s
     0     0 -394.27584    0 1427 -451.71031 -394.27584  12.7%     - 5895s
H    0     0                    -448.2723077 -394.27584  12.0%     - 5902s
     0     0 -394.35042    0 1414 -448.27231 -394.35042  12.0%     - 5914s
     0     0 -394.35042    0 1413 -448.27231 -394.35042  12.0%     - 5917s
     0     0 -395.78292    0 1434 -448.27231 -395.78292  11.7%     - 7700s
     0     0 -395.78292    0 1440 -448.27231 -395.78292  11.7%     - 7709s
     0     0 -398.33669    0 1662 -448.27231 -398.33669  11.1%     - 8686s
     0     0 -398.46160    0 1698 -448.27231 -398.46160  11.1%     - 8808s
     0     0 -398.46160    0 1703 -448.27231 -398.46160  11.1%     - 8813s
     0     0 -400.37155    0 1673 -448.27231 -400.37155  10.7%     - 9452s
     0     0 -400.51079    0 1671 -448.27231 -400.51079  10.7%     - 9478s
     0     0 -400.68305    0 1789 -448.27231 -400.68305  10.6%     - 9633s
     0     0 -400.70161    0 1798 -448.27231 -400.70161  10.6%     - 9681s
     0     0 -400.70161    0 1795 -448.27231 -400.70161  10.6%     - 9685s
     0     0 -401.73720    0 1507 -448.27231 -401.73720  10.4%     - 12072s
H    0     0                    -433.9995575 -401.73720  7.43%     - 12079s
     0     0 -402.44069    0 1521 -433.99956 -402.44069  7.27%     - 13266s
     0     0 -402.44069    0 1511 -433.99956 -402.44069  7.27%     - 13273s
     0     0 -403.98055    0 1717 -433.99956 -403.98055  6.92%     - 14634s
     0     0 -404.10493    0 1717 -433.99956 -404.10493  6.89%     - 14668s
     0     0 -404.10493    0 1732 -433.99956 -404.10493  6.89%     - 14672s
     0     0 -405.40227    0 1391 -433.99956 -405.40227  6.59%     - 20013s
     0     0 -405.59398    0 1738 -433.99956 -405.59398  6.55%     - 20255s
     0     0 -405.59398    0 1738 -433.99956 -405.59398  6.55%     - 20264s
     0     0 -406.85900    0 1750 -433.99956 -406.85900  6.25%     - 30152s
     0     0 -406.87354    0 1765 -433.99956 -406.87354  6.25%     - 30171s
     0     0 -406.87354    0 1769 -433.99956 -406.87354  6.25%     - 30176s
     0     0 -407.46078    0 1633 -433.99956 -407.46078  6.11%     - 30285s
     0     0 -408.37796    0 1761 -433.99956 -408.37796  5.90%     - 31278s
     0     0 -408.38451    0 1697 -433.99956 -408.38451  5.90%     - 31290s
     0     0 -408.38451    0 1721 -433.99956 -408.38451  5.90%     - 31298s
     0     0 -409.26091    0 1507 -433.99956 -409.26091  5.70%     - 32206s
     0     0 -409.63176    0 1511 -433.99956 -409.63176  5.61%     - 32416s
     0     0 -409.74069    0 1514 -433.99956 -409.74069  5.59%     - 32477s
     0     0 -409.75420    0 1518 -433.99956 -409.75420  5.59%     - 32490s
     0     0 -409.75420    0 1520 -433.99956 -409.75420  5.59%     - 32495s
     0     0 -410.99330    0 1519 -433.99956 -410.99330  5.30%     - 33966s
     0     0 -411.54976    0 1546 -433.99956 -411.54976  5.17%     - 34479s
     0     0 -411.67757    0 1529 -433.99956 -411.67757  5.14%     - 34659s
     0     0 -411.68958    0 1576 -433.99956 -411.68958  5.14%     - 34895s
     0     0 -411.68976    0 1581 -433.99956 -411.68976  5.14%     - 34907s
     0     0 -413.07593    0 1457 -433.99956 -413.07593  4.82%     - 37835s
     0     0 -413.62577    0 1366 -433.99956 -413.62577  4.69%     - 39438s
     0     0 -413.76137    0 1508 -433.99956 -413.76137  4.66%     - 39653s
     0     0 -413.78187    0 1529 -433.99956 -413.78187  4.66%     - 39684s
     0     0 -413.78187    0 1530 -433.99956 -413.78187  4.66%     - 39688s
     0     0 -414.12653    0 1552 -433.99956 -414.12653  4.58%     - 39892s
     0     0 -414.65577    0 1519 -433.99956 -414.65577  4.46%     - 40060s
     0     0 -414.71017    0 1534 -433.99956 -414.71017  4.44%     - 40089s
     0     0 -414.71017    0 1538 -433.99956 -414.71017  4.44%     - 40094s
     0     0 -415.76187    0 1516 -433.99956 -415.76187  4.20%     - 41696s
     0     0 -415.77240    0 1530 -433.99956 -415.77240  4.20%     - 41720s
     0     0 -415.90602    0 1556 -433.99956 -415.90602  4.17%     - 41865s
     0     0 -416.00101    0 1524 -433.99956 -416.00101  4.15%     - 41944s
     0     0 -416.00101    0 1530 -433.99956 -416.00101  4.15%     - 41948s
     0     0 -416.29906    0 1588 -433.99956 -416.29906  4.08%     - 42628s
     0     0 -416.52608    0 1331 -433.99956 -416.52608  4.03%     - 45659s
     0     0 -416.53710    0 1327 -433.99956 -416.53710  4.02%     - 45671s
     0     0 -416.70019    0 1575 -433.99956 -416.70019  3.99%     - 45882s
     0     0 -416.72248    0 1581 -433.99956 -416.72248  3.98%     - 45894s
     0     0 -416.72547    0 1582 -433.99956 -416.72547  3.98%     - 45909s
     0     0 -417.08097    0 1522 -433.99956 -417.08097  3.90%     - 46615s
     0     0 -417.11949    0 1579 -433.99956 -417.11949  3.89%     - 46648s
     0     0 -417.12163    0 1583 -433.99956 -417.12163  3.89%     - 46658s
     0     0 -417.74631    0 1497 -433.99956 -417.74631  3.74%     - 47773s
     0     0 -418.02598    0 1567 -433.99956 -418.02598  3.68%     - 48019s
     0     0 -418.08009    0 1558 -433.99956 -418.08009  3.67%     - 48065s
     0     0 -418.08034    0 1561 -433.99956 -418.08034  3.67%     - 48073s
     0     0 -418.72692    0 1563 -433.99956 -418.72692  3.52%     - 50587s
     0     0 -419.08438    0 1585 -433.99956 -419.08438  3.44%     - 51035s
     0     0 -419.11094    0 1595 -433.99956 -419.11094  3.43%     - 51067s
     0     0 -419.11537    0 1594 -433.99956 -419.11537  3.43%     - 51084s
     0     0 -419.11537    0 1617 -433.99956 -419.11537  3.43%     - 51093s
     0     0 -419.17427    0 1605 -433.99956 -419.17427  3.42%     - 51366s
     0     0 -419.67082    0 1534 -433.99956 -419.67082  3.30%     - 57041s
     0     0 -419.75068    0 1583 -433.99956 -419.75068  3.28%     - 57071s
     0     0 -419.75068    0 1583 -433.99956 -419.75068  3.28%     - 57075s
     0     0 -419.75068    0 1599 -433.99956 -419.75068  3.28%     - 57093s
     0     0 -419.75068    0 1580 -433.99956 -419.75068  3.28%     - 57117s
     0     0 -420.45863    0 1574 -433.99956 -420.45863  3.12%     - 59382s
     0     0 -420.88306    0 1557 -433.99956 -420.88306  3.02%     - 59864s
     0     0 -420.99471    0 1560 -433.99956 -420.99471  3.00%     - 59981s
     0     0 -420.99471    0 1565 -433.99956 -420.99471  3.00%     - 59987s
     0     0 -421.20116    0 1512 -433.99956 -421.20116  2.95%     - 62253s
     0     0 -421.37912    0 1526 -433.99956 -421.37912  2.91%     - 65950s
     0     0 -421.46753    0 1441 -433.99956 -421.46753  2.89%     - 66008s
     0     0 -421.53963    0 1457 -433.99956 -421.53963  2.87%     - 66167s
     0     0 -421.53963    0 1468 -433.99956 -421.53963  2.87%     - 66180s
     0     0 -421.95439    0 1494 -433.99956 -421.95439  2.78%     - 68486s
     0     0 -421.95439    0 1571 -433.99956 -421.95439  2.78%     - 68520s
     0     0 -422.03383    0 1579 -433.99956 -422.03383  2.76%     - 68721s
     0     0 -422.13308    0 1526 -433.99956 -422.13308  2.73%     - 68850s
     0     0 -422.15077    0 1576 -433.99956 -422.15077  2.73%     - 68870s
     0     0 -422.15077    0 1588 -433.99956 -422.15077  2.73%     - 68879s
     0     0 -422.23800    0 1834 -433.99956 -422.23800  2.71%     - 69404s
     0     0 -422.38724    0 1580 -433.99956 -422.38724  2.68%     - 69562s
     0     0 -422.45530    0 1583 -433.99956 -422.45530  2.66%     - 69728s
     0     0 -422.49556    0 1584 -433.99956 -422.49556  2.65%     - 69860s
     0     0 -422.50249    0 1586 -433.99956 -422.50249  2.65%     - 69873s
     0     0 -422.50249    0 1586 -433.99956 -422.50249  2.65%     - 69876s
     0     0 -422.88530    0 1821 -433.99956 -422.88530  2.56%     - 70729s
     0     0 -422.93376    0 1843 -433.99956 -422.93376  2.55%     - 70947s
     0     0 -422.97935    0 1598 -433.99956 -422.97935  2.54%     - 70981s
     0     0 -422.99285    0 1841 -433.99956 -422.99285  2.54%     - 71072s
     0     0 -422.99285    0 1852 -433.99956 -422.99285  2.54%     - 71079s
     0     0          -    0      -433.99956 -422.99285  2.54%     - 86400s

Cutting planes:
  Gomory: 1
  MIR: 2
  Zero half: 248

Explored 1 nodes (2526381 simplex iterations) in 86400.40 seconds
Thread count was 1 (of 80 available processors)

Solution count 7: -434 -448.272 -451.71 ... -16827.1

Time limit reached
Best objective -4.339995575441e+02, best bound -4.229928455221e+02, gap 2.5361%
